p cnf 531 1213
1 0
2 0
3 0
4 0
5 0
6 0
7 0
8 0
9 0
10 0
11 0
12 0
13 0
14 0
15 0
16 0
17 0
18 0
19 0
20 0
21 0
22 0
23 0
24 0
25 0
-26 0
-27 0
-28 0
-29 0
-30 0
-31 0
-32 0
-33 0
-34 0
-35 0
-36 0
-37 0
-38 0
-39 0
-40 0
-41 0
-42 0
-43 0
-44 0
-45 0
-46 0
-47 0
-48 0
-49 0
-50 0
1 -51 0
-1 51 0
2 -52 0
-2 52 0
3 -53 0
-3 53 0
4 -54 0
-4 54 0
5 -55 0
-5 55 0
6 -56 0
-6 56 0
7 -57 0
-7 57 0
8 -58 0
-8 58 0
9 -59 0
-9 59 0
10 -60 0
-10 60 0
11 -61 0
-11 61 0
12 -62 0
-12 62 0
13 -63 0
-13 63 0
14 -64 0
-14 64 0
15 -65 0
-15 65 0
16 -66 0
-16 66 0
17 -67 0
-17 67 0
18 -68 0
-18 68 0
19 -69 0
-19 69 0
20 -70 0
-20 70 0
21 -71 0
-21 71 0
22 -72 0
-22 72 0
23 -73 0
-23 73 0
24 -74 0
-24 74 0
25 -75 0
-25 75 0
76 77 0
78 77 0
79 77 0
-78 -76 -79 -77 0
-26 77 -80 0
26 -80 -77 0
80 -77 -26 0
26 77 80 0
-80 0
78 81 0
79 81 0
-78 -79 -81 0
-82 -83 81 0
82 -81 -83 0
83 -81 -82 0
82 83 81 0
-83 0
84 -79 0
-84 79 0
85 86 0
87 86 0
88 86 0
-88 -85 -87 -86 0
-27 86 -89 0
27 -86 -89 0
89 -86 -27 0
27 86 89 0
-89 0
-90 86 -91 0
90 -86 -91 0
91 -86 -90 0
90 86 91 0
-91 0
-92 86 -93 0
92 -86 -93 0
93 -86 -92 0
92 86 93 0
-93 0
94 95 0
96 95 0
97 95 0
98 95 0
-99 0
-28 95 -100 0
28 -95 -100 0
100 -95 -28 0
28 95 100 0
-100 0
96 101 0
97 101 0
98 101 0
-96 -97 -98 -101 0
-102 101 -103 0
102 -101 -103 0
103 -101 -102 0
102 101 103 0
-103 0
-104 101 -105 0
104 -101 -105 0
105 -101 -104 0
104 101 105 0
-105 0
-106 101 -107 0
106 -101 -107 0
107 -101 -106 0
106 101 107 0
-107 0
108 109 0
110 109 0
111 109 0
112 109 0
-113 0
-29 109 -114 0
29 -109 -114 0
114 -109 -29 0
29 109 114 0
-114 0
110 115 0
111 115 0
112 115 0
-110 -111 -112 -115 0
-116 115 -117 0
116 -115 -117 0
117 -115 -116 0
116 115 117 0
-117 0
111 118 0
112 118 0
-111 -112 -118 0
-119 118 -120 0
119 -118 -120 0
120 -118 -119 0
119 118 120 0
-120 0
-121 118 -122 0
121 -118 -122 0
122 -118 -121 0
121 118 122 0
-122 0
123 124 0
125 124 0
126 124 0
127 124 0
128 124 0
129 124 0
130 124 0
131 124 0
-132 0
-30 124 -133 0
30 -124 -133 0
133 -124 -30 0
30 124 133 0
-133 0
125 134 0
126 134 0
127 134 0
128 134 0
129 134 0
130 134 0
131 134 0
-135 0
-136 134 -137 0
136 -134 -137 0
137 -134 -136 0
136 134 137 0
-137 0
126 138 0
127 138 0
128 138 0
129 138 0
130 138 0
131 138 0
-139 0
-140 138 -141 0
140 -138 -141 0
141 -138 -140 0
140 138 141 0
-141 0
127 142 0
128 142 0
129 142 0
130 142 0
131 142 0
-143 0
-144 142 -145 0
144 -142 -145 0
145 -142 -144 0
144 142 145 0
-145 0
128 146 0
129 146 0
130 146 0
131 146 0
-147 0
-148 146 -149 0
148 -146 -149 0
149 -146 -148 0
148 146 149 0
-149 0
-150 146 -151 0
150 -146 -151 0
151 -146 -150 0
150 146 151 0
-151 0
-152 146 -153 0
152 -146 -153 0
153 -146 -152 0
152 146 153 0
-153 0
-154 146 -155 0
154 -146 -155 0
155 -146 -154 0
154 146 155 0
-155 0
156 157 0
158 157 0
159 157 0
160 157 0
161 157 0
162 157 0
-163 0
-31 157 -164 0
31 -157 -164 0
164 -157 -31 0
31 157 164 0
-164 0
158 165 0
159 165 0
160 165 0
161 165 0
162 165 0
-166 0
-167 165 -168 0
167 -165 -168 0
168 -165 -167 0
167 165 168 0
-168 0
159 169 0
160 169 0
161 169 0
162 169 0
-170 0
-171 169 -172 0
171 -169 -172 0
172 -169 -171 0
171 169 172 0
-172 0
-173 169 -174 0
173 -169 -174 0
174 -169 -173 0
173 169 174 0
-174 0
-175 169 -176 0
175 -169 -176 0
176 -169 -175 0
175 169 176 0
-176 0
-177 169 -178 0
177 -169 -178 0
178 -169 -177 0
177 169 178 0
-178 0
179 180 0
181 180 0
182 180 0
183 180 0
184 180 0
185 180 0
186 180 0
-187 0
-32 180 -188 0
32 -180 -188 0
188 -180 -32 0
32 180 188 0
-188 0
181 189 0
182 189 0
183 189 0
184 189 0
185 189 0
186 189 0
-190 0
-191 189 -192 0
191 -189 -192 0
192 -189 -191 0
191 189 192 0
-192 0
182 193 0
183 193 0
184 193 0
185 193 0
186 193 0
-194 0
-195 193 -196 0
195 -193 -196 0
196 -193 -195 0
195 193 196 0
-196 0
183 197 0
184 197 0
185 197 0
186 197 0
-198 0
-199 197 -200 0
199 -197 -200 0
200 -197 -199 0
199 197 200 0
-200 0
-201 197 -202 0
201 -197 -202 0
202 -197 -201 0
201 197 202 0
-202 0
-203 197 -204 0
203 -197 -204 0
204 -197 -203 0
203 197 204 0
-204 0
-205 197 -206 0
205 -197 -206 0
206 -197 -205 0
205 197 206 0
-206 0
207 208 0
209 208 0
-209 -207 -208 0
-33 208 -210 0
33 -208 -210 0
210 -208 -33 0
33 208 210 0
-210 0
211 -209 0
-211 209 0
212 213 0
214 213 0
215 213 0
216 213 0
217 213 0
218 213 0
219 213 0
-220 0
-34 213 -221 0
34 -213 -221 0
221 -213 -34 0
34 213 221 0
-221 0
214 222 0
215 222 0
216 222 0
217 222 0
218 222 0
219 222 0
-223 0
-224 222 -225 0
224 -222 -225 0
225 -222 -224 0
224 222 225 0
-225 0
215 226 0
216 226 0
217 226 0
218 226 0
219 226 0
-227 0
-228 226 -229 0
228 -226 -229 0
229 -226 -228 0
228 226 229 0
-229 0
216 230 0
217 230 0
218 230 0
219 230 0
-231 0
-232 230 -233 0
232 -230 -233 0
233 -230 -232 0
232 230 233 0
-233 0
-234 230 -235 0
234 -230 -235 0
235 -230 -234 0
234 230 235 0
-235 0
-236 230 -237 0
236 -230 -237 0
237 -230 -236 0
236 230 237 0
-237 0
-238 230 -239 0
238 -230 -239 0
239 -230 -238 0
238 230 239 0
-239 0
240 241 0
242 241 0
243 241 0
244 241 0
-245 0
-35 241 -246 0
35 -241 -246 0
246 -241 -35 0
35 241 246 0
-246 0
242 247 0
243 247 0
244 247 0
-242 -244 -243 -247 0
-248 247 -249 0
248 -247 -249 0
249 -247 -248 0
248 247 249 0
-249 0
243 250 0
244 250 0
-244 -243 -250 0
-251 250 -252 0
251 -250 -252 0
252 -250 -251 0
251 250 252 0
-252 0
253 -244 0
-253 244 0
36 -254 0
-36 254 0
255 256 0
257 256 0
258 256 0
259 256 0
260 256 0
261 256 0
-262 0
-37 256 -263 0
37 -256 -263 0
263 -256 -37 0
37 256 263 0
-263 0
257 264 0
258 264 0
259 264 0
260 264 0
261 264 0
-265 0
-266 264 -267 0
266 -264 -267 0
267 -264 -266 0
266 264 267 0
-267 0
258 268 0
259 268 0
260 268 0
261 268 0
-269 0
-270 268 -271 0
270 -268 -271 0
271 -268 -270 0
270 268 271 0
-271 0
-272 268 -273 0
272 -268 -273 0
273 -268 -272 0
272 268 273 0
-273 0
-274 268 -275 0
274 -268 -275 0
275 -268 -274 0
274 268 275 0
-275 0
-276 268 -277 0
276 -268 -277 0
277 -268 -276 0
276 268 277 0
-277 0
278 279 0
280 279 0
281 279 0
282 279 0
283 279 0
284 279 0
-285 0
-38 279 -286 0
38 -279 -286 0
286 -279 -38 0
38 279 286 0
-286 0
280 287 0
281 287 0
282 287 0
283 287 0
284 287 0
-288 0
-289 287 -290 0
289 -287 -290 0
290 -287 -289 0
289 287 290 0
-290 0
281 291 0
282 291 0
283 291 0
284 291 0
-292 0
-293 291 -294 0
293 -291 -294 0
294 -291 -293 0
293 291 294 0
-294 0
-295 291 -296 0
295 -291 -296 0
296 -291 -295 0
295 291 296 0
-296 0
-297 291 -298 0
297 -291 -298 0
298 -291 -297 0
297 291 298 0
-298 0
-299 291 -300 0
299 -291 -300 0
300 -291 -299 0
299 291 300 0
-300 0
301 302 0
303 302 0
304 302 0
305 302 0
306 302 0
-307 0
-39 302 -308 0
39 -302 -308 0
308 -302 -39 0
39 302 308 0
-308 0
303 309 0
304 309 0
305 309 0
306 309 0
-310 0
-311 309 -312 0
311 -309 -312 0
312 -309 -311 0
311 309 312 0
-312 0
304 313 0
305 313 0
306 313 0
-304 -305 -306 -313 0
-314 313 -315 0
314 -313 -315 0
315 -313 -314 0
314 313 315 0
-315 0
305 316 0
306 316 0
-305 -306 -316 0
-317 316 -318 0
317 -316 -318 0
318 -316 -317 0
317 316 318 0
-318 0
-319 316 -320 0
319 -316 -320 0
320 -316 -319 0
319 316 320 0
-320 0
321 322 0
323 322 0
324 322 0
325 322 0
326 322 0
-327 0
-40 322 -328 0
40 -322 -328 0
328 -322 -40 0
40 322 328 0
-328 0
323 329 0
324 329 0
325 329 0
326 329 0
-330 0
-331 329 -332 0
331 -329 -332 0
332 -329 -331 0
331 329 332 0
-332 0
-333 329 -334 0
333 -329 -334 0
334 -329 -333 0
333 329 334 0
-334 0
-335 329 -336 0
335 -329 -336 0
336 -329 -335 0
335 329 336 0
-336 0
-337 329 -338 0
337 -329 -338 0
338 -329 -337 0
337 329 338 0
-338 0
339 340 0
341 340 0
342 340 0
343 340 0
344 340 0
345 340 0
346 340 0
-347 0
-41 340 -348 0
41 -340 -348 0
348 -340 -41 0
41 340 348 0
-348 0
341 349 0
342 349 0
343 349 0
344 349 0
345 349 0
346 349 0
-350 0
-351 349 -352 0
351 -349 -352 0
352 -349 -351 0
351 349 352 0
-352 0
342 353 0
343 353 0
344 353 0
345 353 0
346 353 0
-354 0
-355 353 -356 0
355 -353 -356 0
356 -353 -355 0
355 353 356 0
-356 0
343 357 0
344 357 0
345 357 0
346 357 0
-358 0
-359 357 -360 0
359 -357 -360 0
360 -357 -359 0
359 357 360 0
-360 0
-361 357 -362 0
361 -357 -362 0
362 -357 -361 0
361 357 362 0
-362 0
-363 357 -364 0
363 -357 -364 0
364 -357 -363 0
363 357 364 0
-364 0
-365 357 -366 0
365 -357 -366 0
366 -357 -365 0
365 357 366 0
-366 0
367 368 0
369 368 0
370 368 0
-369 -367 -370 -368 0
-42 368 -371 0
42 -368 -371 0
371 -368 -42 0
42 368 371 0
-371 0
369 372 0
370 372 0
-369 -370 -372 0
-373 372 -374 0
373 -372 -374 0
374 -372 -373 0
373 372 374 0
-374 0
375 -370 0
-375 370 0
376 377 0
378 377 0
379 377 0
380 377 0
381 377 0
382 377 0
383 377 0
-384 0
-43 377 -385 0
43 -377 -385 0
385 -377 -43 0
43 377 385 0
-385 0
378 386 0
379 386 0
380 386 0
381 386 0
382 386 0
383 386 0
-387 0
-388 386 -389 0
388 -386 -389 0
389 -386 -388 0
388 386 389 0
-389 0
379 390 0
380 390 0
381 390 0
382 390 0
383 390 0
-391 0
-392 390 -393 0
392 -390 -393 0
393 -390 -392 0
392 390 393 0
-393 0
380 394 0
381 394 0
382 394 0
383 394 0
-395 0
-396 394 -397 0
396 -394 -397 0
397 -394 -396 0
396 394 397 0
-397 0
381 398 0
382 398 0
383 398 0
-381 -382 -383 -398 0
-399 398 -400 0
399 -398 -400 0
400 -398 -399 0
399 398 400 0
-400 0
-401 398 -402 0
401 -398 -402 0
402 -398 -401 0
401 398 402 0
-402 0
-403 398 -404 0
403 -398 -404 0
404 -398 -403 0
403 398 404 0
-404 0
405 406 0
407 406 0
408 406 0
409 406 0
410 406 0
411 406 0
-412 0
-44 406 -413 0
44 -406 -413 0
413 -406 -44 0
44 406 413 0
-413 0
407 414 0
408 414 0
409 414 0
410 414 0
411 414 0
-415 0
-416 414 -417 0
416 -414 -417 0
417 -414 -416 0
416 414 417 0
-417 0
408 418 0
409 418 0
410 418 0
411 418 0
-419 0
-420 418 -421 0
420 -418 -421 0
421 -418 -420 0
420 418 421 0
-421 0
409 422 0
410 422 0
411 422 0
-409 -410 -411 -422 0
-423 422 -424 0
423 -422 -424 0
424 -422 -423 0
423 422 424 0
-424 0
-425 422 -426 0
425 -422 -426 0
426 -422 -425 0
425 422 426 0
-426 0
-427 422 -428 0
427 -422 -428 0
428 -422 -427 0
427 422 428 0
-428 0
429 430 0
431 430 0
-431 -429 -430 0
-45 430 -432 0
45 -430 -432 0
432 -430 -45 0
45 430 432 0
-432 0
433 -431 0
-433 431 0
434 435 0
436 435 0
437 435 0
438 435 0
439 435 0
-440 0
-46 435 -441 0
46 -435 -441 0
441 -435 -46 0
46 435 441 0
-441 0
436 442 0
437 442 0
438 442 0
439 442 0
-443 0
-444 442 -445 0
444 -442 -445 0
445 -442 -444 0
444 442 445 0
-445 0
437 446 0
438 446 0
439 446 0
-437 -438 -439 -446 0
-447 446 -448 0
447 -446 -448 0
448 -446 -447 0
447 446 448 0
-448 0
438 449 0
439 449 0
-438 -439 -449 0
-450 449 -451 0
450 -449 -451 0
451 -449 -450 0
450 449 451 0
-451 0
-452 449 -453 0
452 -449 -453 0
453 -449 -452 0
452 449 453 0
-453 0
454 455 0
456 455 0
-454 -456 -455 0
-47 455 -457 0
47 -455 -457 0
457 -455 -47 0
47 455 457 0
-457 0
-458 455 -459 0
458 -455 -459 0
459 -455 -458 0
458 455 459 0
-459 0
460 461 0
462 461 0
463 461 0
464 461 0
-465 0
-48 461 -466 0
48 -461 -466 0
466 -461 -48 0
48 461 466 0
-466 0
462 467 0
463 467 0
464 467 0
-462 -463 -464 -467 0
-468 467 -469 0
468 -467 -469 0
469 -467 -468 0
468 467 469 0
-469 0
463 470 0
464 470 0
-463 -464 -470 0
-471 470 -472 0
471 -470 -472 0
472 -470 -471 0
471 470 472 0
-472 0
-473 470 -474 0
473 -470 -474 0
474 -470 -473 0
473 470 474 0
-474 0
475 476 0
477 476 0
478 476 0
479 476 0
480 476 0
481 476 0
482 476 0
-483 0
-49 476 -484 0
49 -476 -484 0
484 -476 -49 0
49 476 484 0
-484 0
477 485 0
478 485 0
479 485 0
480 485 0
481 485 0
482 485 0
-486 0
-487 485 -488 0
487 -485 -488 0
488 -485 -487 0
487 485 488 0
-488 0
478 489 0
479 489 0
480 489 0
481 489 0
482 489 0
-490 0
-491 489 -492 0
491 -489 -492 0
492 -489 -491 0
491 489 492 0
-492 0
479 493 0
480 493 0
481 493 0
482 493 0
-494 0
-495 493 -496 0
495 -493 -496 0
496 -493 -495 0
495 493 496 0
-496 0
480 497 0
481 497 0
482 497 0
-480 -482 -481 -497 0
-498 497 -499 0
498 -497 -499 0
499 -497 -498 0
498 497 499 0
-499 0
-500 497 -501 0
500 -497 -501 0
501 -497 -500 0
500 497 501 0
-501 0
-502 497 -503 0
502 -497 -503 0
503 -497 -502 0
502 497 503 0
-503 0
504 505 0
506 505 0
507 505 0
508 505 0
509 505 0
-510 0
-50 505 -511 0
50 -505 -511 0
511 -505 -50 0
50 505 511 0
-511 0
506 512 0
507 512 0
508 512 0
509 512 0
-513 0
-514 512 -515 0
514 -512 -515 0
515 -512 -514 0
514 512 515 0
-515 0
507 516 0
508 516 0
509 516 0
-508 -509 -507 -516 0
-517 516 -518 0
517 -516 -518 0
518 -516 -517 0
517 516 518 0
-518 0
-519 516 -520 0
519 -516 -520 0
520 -516 -519 0
519 516 520 0
-520 0
-521 516 -522 0
521 -516 -522 0
522 -516 -521 0
521 516 522 0
-522 0
51 -523 0
52 -523 0
53 -523 0
54 -523 0
55 -523 0
56 -523 0
57 -523 0
58 -523 0
59 -523 0
60 -523 0
61 -523 0
62 -523 0
63 -523 0
64 -523 0
65 -523 0
66 -523 0
67 -523 0
68 -523 0
69 -523 0
70 -523 0
71 -523 0
72 -523 0
73 -523 0
74 -523 0
75 -523 0
76 -523 0
-523 -78 0
79 -523 0
85 -523 0
87 -523 0
-523 -88 0
-523 -94 0
-523 -96 0
97 -523 0
98 -523 0
-523 -108 0
-523 -110 0
-523 -111 0
112 -523 0
-523 -123 0
-523 -125 0
-523 -126 0
-523 -127 0
-523 -128 0
-523 -129 0
-523 -130 0
131 -523 0
-523 -156 0
158 -523 0
-523 -159 0
-523 -160 0
161 -523 0
-523 -162 0
-523 -179 0
181 -523 0
-523 -182 0
-523 -183 0
-523 -184 0
185 -523 0
186 -523 0
207 -523 0
-523 -209 0
212 -523 0
-523 -214 0
215 -523 0
-523 -216 0
-523 -217 0
218 -523 0
-523 -219 0
240 -523 0
-523 -242 0
243 -523 0
-523 -244 0
-523 -254 0
-523 -255 0
257 -523 0
-523 -258 0
259 -523 0
260 -523 0
-523 -261 0
-523 -278 0
280 -523 0
-523 -281 0
282 -523 0
283 -523 0
-523 -284 0
-523 -301 0
-523 -303 0
-523 -304 0
-523 -305 0
306 -523 0
321 -523 0
-523 -323 0
324 -523 0
-523 -325 0
-523 -326 0
339 -523 0
341 -523 0
342 -523 0
-523 -343 0
-523 -344 0
345 -523 0
-523 -346 0
367 -523 0
-523 -369 0
370 -523 0
-523 -376 0
-523 -378 0
-523 -379 0
-523 -380 0
-523 -381 0
382 -523 0
383 -523 0
-523 -405 0
-523 -407 0
-523 -408 0
-523 -409 0
410 -523 0
411 -523 0
429 -523 0
-523 -431 0
-523 -434 0
-523 -436 0
-523 -437 0
-523 -438 0
439 -523 0
-523 -454 0
456 -523 0
460 -523 0
-523 -462 0
-523 -463 0
464 -523 0
475 -523 0
477 -523 0
-523 -478 0
479 -523 0
-523 -480 0
481 -523 0
-523 -482 0
-523 -504 0
506 -523 0
507 -523 0
-523 -508 0
-523 -509 0
523 0
-524 0
-525 0
-526 0
-527 0
-528 0
-529 0
-530 0
-531 0
